CMD:
./solvers/bin/cadical --plain --no-reduce -t 1600 ./data/cnfs//qspiflash_qflexpress_divfive-p139/qspiflash_qflexpress_divfive-p139.83.cnf

c --- [ banner ] -------------------------------------------------------------
c 
c CaDiCaL SAT Solver
c Copyright (c) 2016-2024
c A. Biere, M. Fleury, N. Froleyks, K. Fazekas, F. Pollitt, T. Faller
c JKU Linz, University of Freiburg, TU Wien
c 
c Version 2.1.3 5296d3d2a9bf48c154ab2acb5e44625776d821bf
c g++ (Gentoo 12.3.1_p20230526 p2) 12.3.1 20230526 -Wall -Wextra -O3 -DNDEBUG
c Sat Aug 9 07:26:21 PDT 2025 Linux cedar2.int.cedar.computecanada.ca 5.14.0-362.24.2.el9_3.x86_64 x86_64
c 
c --- [ limit ] --------------------------------------------------------------
c 
c setting time limit to 1600 seconds real time (due to '-t 1600')
c 
c --- [ parsing input ] ------------------------------------------------------
c 
c reading DIMACS file from './data/cnfs//qspiflash_qflexpress_divfive-p139/qspiflash_qflexpress_divfive-p139.83.cnf'
c opening file to read './data/cnfs//qspiflash_qflexpress_divfive-p139/qspiflash_qflexpress_divfive-p139.83.cnf'
c found 'p cnf 220793 643976' header
c parsed 643976 clauses in 0.09 seconds process time
c 
c --- [ options ] ------------------------------------------------------------
c 
c   --compact=false                (different from default 'true')
c   --decompose=false              (different from default 'true')
c   --deduplicate=false            (different from default 'true')
c   --elim=false                   (different from default 'true')
c   --probe=false                  (different from default 'true')
c   --reduce=false                 (different from default 'true')
c   --subsume=false                (different from default 'true')
c   --ternary=false                (different from default 'true')
c   --transred=false               (different from default 'true')
c   --vivify=false                 (different from default 'true')
c 
c --- [ solving ] ------------------------------------------------------------
c 
c time measured in process time since initialization
c 
c  seconds   reductions  redundant  irredundant
c          MB    restarts       trail       variables
c           level   conflicts       glue          remaining
c 
c *  0.09 103  0 0   0    0    0  0% 0 627856 210548 95%
c {  0.13 106  0 0   0    0    0  0% 0 627856 210548 95%
c i  0.16 107 14 0   0   28   20  9% 3 627856 210471 95%
c i  0.16 107 14 0   0   29   20  9% 3 627856 210465 95%
c i  0.16 107 14 0   0   30   20  9% 3 627856 210388 95%
c i  0.27 107 109 0   5  542  508 16% 9 627856 210189 95%
c i  0.27 107 91 0   5  773  730 15% 7 627856 210078 95%
c i  0.28 107 91 0   5  877  823 16% 7 627856 210077 95%
c }  0.29 107 91 0   5 1004  933 17% 6 627856 210077 95%
c [  0.29 107  0 0   5 1004  933  0% 0 627856 210077 95%
c O  0.32 108 1118 0   5 1005  934 91% 1 627856 210077 95%
c i  0.33 108 1003 0   5 1254 1165 79% 2 627856 210073 95%
c i  0.33 108 1001 0   5 1271 1179 79% 2 627856 210072 95%
c i  0.42 108 942 0   5 1885 1740 74% 3 627856 210068 95%
c i  0.42 108 942 0   5 1886 1740 74% 3 627856 210064 95%
c i  0.49 108 861 0   6 2142 1962 68% 3 627856 210063 95%
c i  0.50 108 795 0   6 2237 2054 64% 3 627856 210062 95%
c i  0.51 108 746 0   6 2323 2136 60% 3 627856 210061 95%
c i  0.52 108 715 0   6 2392 2199 58% 3 627856 210060 95%
c i  0.52 108 709 0   6 2406 2211 58% 3 627856 210059 95%
c 
c  seconds    reductions  redundant  irredundant
c          MB     restarts       trail       variables
c            level   conflicts       glue          remaining
c 
c i  0.53 108 651 0   6 2553 2330 54% 4 627856 210058 95%
c i  0.53 108 647 0   6 2564 2339 54% 4 627856 210057 95%
c i  0.56 108 569 0   6 2806 2550 49% 5 627856 210056 95%
c ]  0.58 108 523 0   6 3005 2723 46% 5 627856 210056 95%
c {  0.58 108 91 0   6 3005 2723 17% 6 627856 210056 95%
c F  0.58 108 90 0   6 3006 2724 17% 6 627856 210056 95%
c i  0.59 108 87 0   6 3064 2778 16% 6 627856 209744 95%
c i  0.68 108 86 0  15 3829 3437 18% 5 627856 209740 95%
c i  0.72 109 80 0  22 4231 3791 18% 5 627856 209736 95%
c i  0.72 109 80 0  22 4260 3814 18% 5 627856 209732 95%
c i  0.75 109 77 0  49 4517 4033 18% 5 627856 209731 95%
c i  0.76 109 76 0  50 4527 4042 18% 5 627856 209730 95%
c i  0.77 109 74 0  60 4745 4245 17% 5 627856 209729 95%
c i  0.77 109 73 0  60 4750 4249 17% 5 627856 209728 95%
c i  0.83 109 75 0  74 5341 4762 18% 5 627856 209724 95%
c i  0.83 109 74 0  81 5365 4785 17% 5 627856 209723 95%
c i  0.85 109 73 0  88 5449 4862 17% 5 627856 209722 95%
c i  0.87 109 70 0  95 5609 5006 17% 5 627856 209718 95%
c i  0.94 109 69 0 125 5952 5321 17% 5 627856 209647 95%
c i  0.94 109 70 0 125 5976 5335 17% 5 627856 209606 95%
c 
c  seconds   reductions  redundant  irredundant
c          MB    restarts       trail       variables
c           level   conflicts       glue          remaining
c 
c #  0.94 109 70 0 125 6010 5366 17% 5 627856 209534 95%
c i  0.98 109 68 0 144 6371 5694 17% 5 627856 209530 95%
c i  1.02 109 71 0 161 6735 6011 17% 5 627856 209526 95%
c i  1.02 109 71 0 162 6772 6044 16% 5 627856 209525 95%
... skipped 78 lines ...
c i  4.64 112 45 0 1043 25472 21940 15% 5 604157 208274 94%
c i  4.66 112 44 0 1043 25509 21963 15% 5 604157 208270 94%
c i  4.78 112 44 0 1062 26005 22378 15% 5 604157 208149 94%
c i  4.91 112 44 0 1069 26524 22796 15% 5 604157 208145 94%
c i  4.91 112 44 0 1069 26536 22803 15% 5 604157 207982 94%
c i  5.01 112 44 0 1116 26790 23032 15% 5 604157 207978 94%
c i  5.05 112 43 0 1138 26886 23116 15% 5 604157 207974 94%
c i  5.07 112 43 0 1146 26955 23175 15% 5 604157 207968 94%
c i  5.13 112 43 0 1146 27319 23499 15% 5 604157 207804 94%
c i  5.13 112 43 0 1146 27325 23503 15% 5 604157 207764 94%
c i  5.19 112 43 0 1154 27502 23630 15% 5 604157 207644 94%
c i  5.20 112 43 0 1154 27550 23671 15% 5 604157 207362 94%
c i  5.23 112 43 0 1154 27639 23744 15% 5 604157 207361 94%
c 
c  seconds   reductions     redundant  irredundant
c          MB    restarts          trail       variables
c           level     conflicts        glue          remaining
c 
c i  5.23 112 43 0 1156 27646 23750 15% 5 604157 207357 94%
c i  5.26 112 42 0 1171 27720 23811 15% 5 604157 207351 94%
c i  5.28 112 42 0 1182 27770 23857 15% 5 604157 207347 94%
c i  5.34 112 42 0 1204 27928 23993 15% 5 604157 207225 94%
c i  5.36 112 42 0 1209 27980 24039 15% 5 604157 207140 94%
c F  5.38 112 42 0 1217 28021 24076 15% 5 604157 207105 94%
c i  5.41 112 42 0 1224 28160 24202 15% 5 604157 207102 94%
c i  5.45 112 42 0 1240 28294 24306 15% 5 604157 207049 94%
c i  5.46 112 42 0 1240 28308 24315 15% 5 604157 207048 94%
c i  5.46 112 42 0 1240 28309 24315 15% 5 604157 207044 94%
c i  5.50 112 42 0 1247 28441 24436 15% 5 604157 207039 94%
c i  5.54 112 41 0 1266 28528 24508 15% 5 604157 206957 94%
c i  5.54 112 41 0 1267 28529 24508 15% 5 604157 206949 94%
c i  5.67 112 41 0 1325 28942 24880 15% 5 604157 206943 94%
c i  5.67 112 41 0 1326 28945 24881 15% 5 604157 206937 94%
c i  5.67 112 41 0 1329 28955 24890 15% 5 604157 206933 94%
c i  5.67 112 41 0 1330 28981 24907 15% 5 604157 206783 94%
c i  5.68 112 41 0 1331 29052 24961 15% 5 604157 206779 94%
c i  5.71 112 41 0 1352 29181 25066 15% 5 604157 206778 94%
c i  5.72 112 41 0 1352 29229 25098 15% 5 604157 206775 94%
c 
c  seconds   reductions     redundant  irredundant
c          MB    restarts          trail       variables
c           level     conflicts        glue          remaining
c 
c i  5.72 112 41 0 1352 29235 25101 15% 5 604157 206771 94%
c }  5.78 112 40 0 1365 29487 25309 15% 5 604157 203984 92%
c 0  5.78 112 40 0 1365 29487 25309 15% 5 604157 203984 92%
c 
c --- [ result ] -------------------------------------------------------------
c 
s UNSATISFIABLE
c 
c --- [ run-time profiling ] -------------------------------------------------
c 
c process time taken by individual solving procedures
c (percentage relative to process time for solving)
c 
c         5.69  100.00% search
c         3.86   67.79% unstable
c         1.61   28.27% stable
c         0.18    3.18% walk
c         0.09    1.60% parse
c         0.04    0.75% lucky
c         0.00    0.00% simplify
c   =================================
c         5.69   98.41% solve
c 
c last line shows process time for solving
c (percentage relative to total process time)
c 
c --- [ statistics ] ---------------------------------------------------------
c 
c chronological:             11227        38.07 %  of conflicts
c conflicts:                 29487      5180.16    per second
c decisions:                 89569     15735.14    per second
c fixed:                     16808         7.61 %  of all variables
c learned:                   27966        94.84 %  per conflict
c learned_lits:             794470       100.00 %  learned literals
c minimized:                     0         0.00 %  learned literals
c shrunken:                 161589        20.34 %  learned literals
c minishrunken:             167234        21.05 %  learned literals
c otfs:                        314         1.06 %  of conflict
c propagations:           97768641        17.18 M  per second
c rephased:                      7      4212.43    interval
c restarts:                   1365        21.60    interval
c stabilizing:                   2        33.92 %  of conflicts
c subsumed:                   2121         0.32 %  of all clauses
c strengthened:                314         0.05 %  of all clauses
c walked:                        1     29487.00    interval
c 
c seconds are measured in process time for solving
c 
c --- [ resources ] ----------------------------------------------------------
c 
c total process time since initialization:         5.78    seconds
c total real time since initialization:            5.81    seconds
c maximum resident set size of process:          115.69    MB
c 
c --- [ shutting down ] ------------------------------------------------------
c 
c exit 20
